NAME 
ROWS
 N  OBJ
 L  R0      
 L  R1      
 E  R2      
 E  R3      
 E  R4      
 E  R5      
 E  R6      
 E  R7      
 E  R8      
 E  R9      
 E  R10     
 E  R11     
COLUMNS
    MARKER    'MARKER'                 'INTORG'
    I0(6)     OBJ       -4
    I0(6)     R0        -85
    I0(6)     R1        34
    I0(6)     R3        10
    I0(6)     R4        2
    I0(6)     R5        18
    I0(6)     R11       1
    I1(5)     OBJ       3
    I1(5)     R0        -36
    I1(5)     R1        -157
    I1(5)     R3        8
    I1(5)     R5        19
    I1(5)     R11       1
    I2(6)     OBJ       -189
    I2(6)     R0        199
    I2(6)     R1        29
    I2(6)     R3        6
    I2(6)     R4        18
    I2(6)     R5        11
    I2(6)     R11       1
    I3(5)     OBJ       -109
    I3(5)     R0        100
    I3(5)     R1        -125
    I3(5)     R3        16
    I3(5)     R5        11
    I3(5)     R11       1
    I4(4)     OBJ       171
    I4(4)     R0        -34
    I4(4)     R1        -52
    I4(4)     R5        12
    I4(4)     R11       1
    MARKER    'MARKER'                 'INTEND'
    C5(6)     OBJ       5
    C5(6)     R0        -4
    C5(6)     R1        -7
    C5(6)     R5        15
    C5(6)     R8        5
    C5(6)     R9        7
    C5(6)     R10       -1
    C6(6)     R0        1
    C6(6)     R1        8
    C6(6)     R3        5
    C6(6)     R5        2
    C6(6)     R8        -1
    C6(6)     R9        4
    C7(6)     OBJ       -9
    C7(6)     R0        -5
    C7(6)     R1        -8
    C7(6)     R2        3
    C7(6)     R6        13
    C7(6)     R7        18
    C7(6)     R9        9
    C8(7)     OBJ       -5
    C8(7)     R0        -10
    C8(7)     R1        1
    C8(7)     R2        10
    C8(7)     R3        11
    C8(7)     R6        9
    C8(7)     R7        11
    C8(7)     R8        17
    C9(9)     OBJ       -5
    C9(9)     R0        -7
    C9(9)     R1        2
    C9(9)     R2        17
    C9(9)     R3        14
    C9(9)     R4        4
    C9(9)     R5        18
    C9(9)     R6        9
    C9(9)     R8        17
    C9(9)     R9        7
    C10(1)    R2        1
    C11(1)    R3        1
    C12(1)    R4        1
    C13(1)    R5        1
    C14(1)    R6        1
    C15(1)    R7        1
    C16(1)    R8        1
    C17(1)    R9        1
    C18(1)    R10       1
    C19(1)    R11       1
RHS
    RHS1      R0        1.7313580246913580e+02
    RHS1      R1        -3.4197530864197532e+00
    RHS1      R2        79
    RHS1      R3        94
    RHS1      R4        91
    RHS1      R5        55
    RHS1      R6        61
    RHS1      R7        76
    RHS1      R8        98
    RHS1      R9        54
    RHS1      R10       88
    RHS1      R11       1
BOUNDS
 UP BND1      I0(6)     1
 UP BND1      I1(5)     1
 UP BND1      I2(6)     1
 UP BND1      I3(5)     1
 UP BND1      I4(4)     1
ENDATA
